(set-logic QF_S)
(declare-fun var0 () String)
(assert (str.in.re var0 (re.++ (re.+ (re.+ (str.to.re "0"))) (re.++ (re.+ (re.+ (str.to.re "11"))) (re.++ (re.+ (re.union (str.to.re "222") (str.to.re "333"))) (re.++ (re.union (re.union (str.to.re "4") (str.to.re "5")) (re.union (str.to.re "666") (str.to.re "777"))) (re.++ (re.union (re.union (str.to.re "88") (str.to.re "9")) (re.union (str.to.re "aa") (str.to.re "bb"))) (re.++ (re.union (re.* (str.to.re "cc")) (re.* (str.to.re "d"))) (re.++ (re.union (re.union (str.to.re "ee") (str.to.re "f")) (re.union (str.to.re "ggg") (str.to.re "hh"))) (re.++ (re.union (re.+ (str.to.re "iii")) (re.+ (str.to.re "jj"))) (re.++ (re.+ (re.+ (str.to.re "k"))) (re.++ (re.+ (re.* (str.to.re "lll"))) (re.++ (re.union (re.* (str.to.re "m")) (re.* (str.to.re "nn"))) (re.++ (re.* (re.* (str.to.re "o"))) (re.++ (re.+ (re.+ (str.to.re "p"))) (re.++ (re.+ (re.+ (str.to.re "qqq"))) (re.++ (re.* (re.union (str.to.re "rrr") (str.to.re "sss"))) (re.++ (re.+ (re.* (str.to.re "ttt"))) (re.++ (re.* (re.union (str.to.re "uu") (str.to.re "vv"))) (re.++ (re.* (re.+ (str.to.re "www"))) (re.++ (re.union (re.+ (str.to.re "x")) (re.+ (str.to.re "yy"))) (re.++ (re.* (re.+ (str.to.re "zzz"))) (re.++ (re.union (re.union (str.to.re "AAA") (str.to.re "B")) (re.union (str.to.re "CCC") (str.to.re "DD"))) (re.++ (re.* (re.union (str.to.re "E") (str.to.re "F"))) (re.++ (re.* (re.union (str.to.re "GG") (str.to.re "H"))) (re.++ (re.union (re.+ (str.to.re "I")) (re.+ (str.to.re "J"))) (re.++ (re.union (re.+ (str.to.re "KKK")) (re.+ (str.to.re "LLL"))) (re.++ (re.* (re.+ (str.to.re "M"))) (re.++ (re.+ (re.+ (str.to.re "NN"))) (re.++ (re.+ (re.* (str.to.re "OOO"))) (re.++ (re.* (re.* (str.to.re "PPP"))) (re.++ (re.+ (re.union (str.to.re "Q") (str.to.re "R"))) (re.++ (re.* (re.union (str.to.re "SS") (str.to.re "T"))) (re.++ (re.+ (re.* (str.to.re "UUU"))) (re.++ (re.* (re.* (str.to.re "VV"))) (re.++ (re.+ (re.* (str.to.re "WWW"))) (re.++ (re.union (re.+ (str.to.re "X")) (re.+ (str.to.re "Y"))) (re.++ (re.union (re.* (str.to.re "Z")) (re.* (str.to.re "!!"))) (re.++ (re.union (re.* (str.to.re """")) (re.* (str.to.re "###"))) (re.++ (re.* (re.union (str.to.re "$$$") (str.to.re "%"))) (re.++ (re.* (re.+ (str.to.re "&"))) (re.++ (re.union (re.union (str.to.re "'") (str.to.re "(")) (re.union (str.to.re ")") (str.to.re "**"))) (re.++ (re.union (re.* (str.to.re "+++")) (re.* (str.to.re ",,"))) (re.++ (re.union (re.* (str.to.re "-")) (re.* (str.to.re ".."))) (re.++ (re.* (re.* (str.to.re "//"))) (re.++ (re.+ (re.union (str.to.re ":::") (str.to.re ";;"))) (re.++ (re.union (re.+ (str.to.re "<<")) (re.+ (str.to.re "="))) (re.++ (re.+ (re.union (str.to.re ">>>") (str.to.re "?"))) (re.++ (re.+ (re.union (str.to.re "@@@") (str.to.re "["))) (re.++ (re.+ (re.+ (str.to.re "\\\\\\"))) (re.++ (re.* (re.* (str.to.re "]"))) (re.++ (re.union (re.* (str.to.re "^^^")) (re.* (str.to.re "_"))) (re.++ (re.* (re.union (str.to.re "```") (str.to.re "{{"))) (re.++ (re.union (re.union (str.to.re "|") (str.to.re "}}")) (re.union (str.to.re "~~~") (str.to.re "00"))) (re.++ (re.* (re.* (str.to.re "111"))) (re.++ (re.union (re.union (str.to.re "22") (str.to.re "333")) (re.union (str.to.re "4") (str.to.re "555"))) (re.++ (re.* (re.* (str.to.re "6"))) (re.++ (re.+ (re.+ (str.to.re "777"))) (re.++ (re.union (re.+ (str.to.re "8")) (re.+ (str.to.re "999"))) (re.++ (re.* (re.union (str.to.re "aa") (str.to.re "b"))) (re.++ (re.+ (re.* (str.to.re "ccc"))) (re.++ (re.union (re.union (str.to.re "ddd") (str.to.re "eee")) (re.union (str.to.re "f") (str.to.re "ggg"))) (re.++ (re.union (re.+ (str.to.re "hh")) (re.+ (str.to.re "i"))) (re.++ (re.+ (re.union (str.to.re "jj") (str.to.re "k"))) (re.++ (re.* (re.+ (str.to.re "ll"))) (re.++ (re.union (re.union (str.to.re "mmm") (str.to.re "n")) (re.union (str.to.re "oo") (str.to.re "pp"))) (re.++ (re.+ (re.union (str.to.re "qq") (str.to.re "rr"))) (re.++ (re.* (re.+ (str.to.re "ss"))) (re.++ (re.+ (re.+ (str.to.re "ttt"))) (re.++ (re.* (re.* (str.to.re "u"))) (re.++ (re.union (re.union (str.to.re "vv") (str.to.re "w")) (re.union (str.to.re "xxx") (str.to.re "yy"))) (re.++ (re.+ (re.+ (str.to.re "z"))) (re.++ (re.+ (re.+ (str.to.re "A"))) (re.++ (re.union (re.* (str.to.re "B")) (re.* (str.to.re "CC"))) (re.++ (re.union (re.union (str.to.re "DDD") (str.to.re "EEE")) (re.union (str.to.re "FFF") (str.to.re "G"))) (re.++ (re.* (re.* (str.to.re "HH"))) (re.++ (re.* (re.+ (str.to.re "III"))) (re.++ (re.+ (re.* (str.to.re "JJ"))) (re.++ (re.* (re.* (str.to.re "K"))) (re.++ (re.* (re.+ (str.to.re "L"))) (re.++ (re.union (re.* (str.to.re "MMM")) (re.* (str.to.re "NN"))) (re.++ (re.* (re.* (str.to.re "OOO"))) (re.++ (re.+ (re.* (str.to.re "P"))) (re.++ (re.union (re.union (str.to.re "Q") (str.to.re "RRR")) (re.union (str.to.re "S") (str.to.re "TTT"))) (re.++ (re.union (re.+ (str.to.re "U")) (re.+ (str.to.re "VV"))) (re.++ (re.+ (re.+ (str.to.re "WW"))) (re.++ (re.+ (re.union (str.to.re "XXX") (str.to.re "Y"))) (re.++ (re.+ (re.+ (str.to.re "ZZ"))) (re.++ (re.* (re.* (str.to.re "!!"))) (re.++ (re.* (re.+ (str.to.re """"""""))) (re.++ (re.union (re.union (str.to.re "###") (str.to.re "$$$")) (re.union (str.to.re "%") (str.to.re "&&&"))) (re.++ (re.* (re.* (str.to.re "'"))) (re.union (re.+ (str.to.re "((")) (re.+ (str.to.re ")))")))))))))))))))))))))))))))))))))))))))))))))))))))))))))))))))))))))))))))))))))))))))))))))))
(assert (not (str.in.re var0 (re.++ (re.* (re.union (str.to.re "00") (str.to.re "1"))) (re.++ (re.+ (re.* (str.to.re "2"))) (re.++ (re.+ (re.union (str.to.re "333") (str.to.re "4"))) (re.++ (re.* (re.+ (str.to.re "555"))) (re.++ (re.union (re.+ (str.to.re "666")) (re.+ (str.to.re "77"))) (re.++ (re.union (re.+ (str.to.re "88")) (re.+ (str.to.re "999"))) (re.++ (re.union (re.* (str.to.re "a")) (re.* (str.to.re "b"))) (re.++ (re.+ (re.+ (str.to.re "ccc"))) (re.++ (re.+ (re.+ (str.to.re "dd"))) (re.++ (re.* (re.* (str.to.re "ee"))) (re.++ (re.union (re.union (str.to.re "fff") (str.to.re "gg")) (re.union (str.to.re "hh") (str.to.re "i"))) (re.++ (re.* (re.* (str.to.re "jjj"))) (re.++ (re.* (re.union (str.to.re "kk") (str.to.re "l"))) (re.++ (re.+ (re.union (str.to.re "mm") (str.to.re "n"))) (re.++ (re.+ (re.* (str.to.re "oo"))) (re.++ (re.union (re.union (str.to.re "p") (str.to.re "qqq")) (re.union (str.to.re "r") (str.to.re "sss"))) (re.++ (re.+ (re.+ (str.to.re "tt"))) (re.++ (re.* (re.+ (str.to.re "uu"))) (re.++ (re.* (re.union (str.to.re "vvv") (str.to.re "www"))) (re.++ (re.* (re.union (str.to.re "x") (str.to.re "y"))) (re.++ (re.+ (re.* (str.to.re "zzz"))) (re.++ (re.* (re.* (str.to.re "AAA"))) (re.++ (re.union (re.* (str.to.re "BBB")) (re.* (str.to.re "C"))) (re.++ (re.union (re.union (str.to.re "DD") (str.to.re "EE")) (re.union (str.to.re "FFF") (str.to.re "G"))) (re.++ (re.union (re.* (str.to.re "HH")) (re.* (str.to.re "III"))) (re.++ (re.* (re.+ (str.to.re "JJ"))) (re.++ (re.+ (re.union (str.to.re "KKK") (str.to.re "LLL"))) (re.++ (re.* (re.union (str.to.re "MM") (str.to.re "NN"))) (re.++ (re.* (re.union (str.to.re "O") (str.to.re "PPP"))) (re.++ (re.union (re.union (str.to.re "QQQ") (str.to.re "R")) (re.union (str.to.re "SS") (str.to.re "TTT"))) (re.++ (re.union (re.+ (str.to.re "U")) (re.+ (str.to.re "V"))) (re.++ (re.union (re.* (str.to.re "W")) (re.* (str.to.re "XX"))) (re.++ (re.+ (re.* (str.to.re "YY"))) (re.++ (re.+ (re.+ (str.to.re "ZZZ"))) (re.++ (re.* (re.union (str.to.re "!") (str.to.re """"))) (re.++ (re.union (re.* (str.to.re "##")) (re.* (str.to.re "$$$"))) (re.++ (re.+ (re.* (str.to.re "%%%"))) (re.++ (re.+ (re.union (str.to.re "&&") (str.to.re "''"))) (re.++ (re.+ (re.* (str.to.re "("))) (re.++ (re.union (re.* (str.to.re ")))")) (re.* (str.to.re "**"))) (re.++ (re.union (re.union (str.to.re "++") (str.to.re ",,")) (re.union (str.to.re "---") (str.to.re ".."))) (re.++ (re.* (re.* (str.to.re "//"))) (re.++ (re.+ (re.+ (str.to.re ":::"))) (re.++ (re.union (re.+ (str.to.re ";;")) (re.+ (str.to.re "<"))) (re.++ (re.union (re.+ (str.to.re "==")) (re.+ (str.to.re ">>>"))) (re.++ (re.+ (re.union (str.to.re "??") (str.to.re "@@@"))) (re.++ (re.* (re.union (str.to.re "[[") (str.to.re "\\\\\\"))) (re.++ (re.union (re.union (str.to.re "]]") (str.to.re "^^^")) (re.union (str.to.re "___") (str.to.re "```"))) (re.++ (re.+ (re.union (str.to.re "{{") (str.to.re "||"))) (re.++ (re.* (re.union (str.to.re "}}}") (str.to.re "~~"))) (re.++ (re.* (re.union (str.to.re "0") (str.to.re "111"))) (re.++ (re.* (re.union (str.to.re "22") (str.to.re "333"))) (re.++ (re.* (re.* (str.to.re "44"))) (re.++ (re.union (re.* (str.to.re "5")) (re.* (str.to.re "66"))) (re.++ (re.union (re.union (str.to.re "7") (str.to.re "888")) (re.union (str.to.re "999") (str.to.re "a"))) (re.++ (re.union (re.union (str.to.re "bb") (str.to.re "ccc")) (re.union (str.to.re "d") (str.to.re "e"))) (re.++ (re.+ (re.union (str.to.re "fff") (str.to.re "gg"))) (re.++ (re.union (re.+ (str.to.re "hhh")) (re.+ (str.to.re "i"))) (re.++ (re.+ (re.+ (str.to.re "jj"))) (re.++ (re.+ (re.+ (str.to.re "kkk"))) (re.++ (re.+ (re.* (str.to.re "l"))) (re.++ (re.+ (re.+ (str.to.re "mmm"))) (re.++ (re.union (re.* (str.to.re "n")) (re.* (str.to.re "oo"))) (re.++ (re.* (re.union (str.to.re "ppp") (str.to.re "qq"))) (re.++ (re.* (re.* (str.to.re "rrr"))) (re.++ (re.union (re.* (str.to.re "ss")) (re.* (str.to.re "tt"))) (re.++ (re.union (re.* (str.to.re "uu")) (re.* (str.to.re "vv"))) (re.++ (re.union (re.* (str.to.re "ww")) (re.* (str.to.re "xxx"))) (re.++ (re.* (re.union (str.to.re "yy") (str.to.re "zzz"))) (re.++ (re.+ (re.* (str.to.re "AA"))) (re.++ (re.+ (re.union (str.to.re "B") (str.to.re "C"))) (re.++ (re.* (re.* (str.to.re "DDD"))) (re.++ (re.union (re.union (str.to.re "E") (str.to.re "FF")) (re.union (str.to.re "GG") (str.to.re "HHH"))) (re.++ (re.union (re.* (str.to.re "III")) (re.* (str.to.re "JJ"))) (re.++ (re.union (re.* (str.to.re "KK")) (re.* (str.to.re "LL"))) (re.++ (re.union (re.+ (str.to.re "M")) (re.+ (str.to.re "N"))) (re.++ (re.union (re.* (str.to.re "OOO")) (re.* (str.to.re "P"))) (re.++ (re.union (re.union (str.to.re "QQ") (str.to.re "RRR")) (re.union (str.to.re "S") (str.to.re "T"))) (re.++ (re.union (re.* (str.to.re "UU")) (re.* (str.to.re "VVV"))) (re.++ (re.union (re.+ (str.to.re "W")) (re.+ (str.to.re "XX"))) (re.++ (re.* (re.+ (str.to.re "YY"))) (re.++ (re.* (re.union (str.to.re "ZZ") (str.to.re "!!!"))) (re.++ (re.* (re.* (str.to.re """"))) (re.++ (re.* (re.union (str.to.re "##") (str.to.re "$$$"))) (re.++ (re.union (re.union (str.to.re "%") (str.to.re "&&&")) (re.union (str.to.re "'") (str.to.re "("))) (re.++ (re.+ (re.union (str.to.re ")") (str.to.re "**"))) (re.++ (re.union (re.+ (str.to.re "++")) (re.+ (str.to.re ",,,"))) (re.++ (re.union (re.* (str.to.re "--")) (re.* (str.to.re "."))) (re.++ (re.* (re.+ (str.to.re "///"))) (re.++ (re.* (re.* (str.to.re ":::"))) (re.union (re.+ (str.to.re ";;;")) (re.+ (str.to.re "<"))))))))))))))))))))))))))))))))))))))))))))))))))))))))))))))))))))))))))))))))))))))))))))))))
(check-sat)